599
610
588
558
655
469
571
749
293
346
257
252
230
249
357
326
309
159
160
166
141
188
272
275
264
256
272
78
88
85
89
78
244
241
273
243
248
67
72
82
68
68
31
36
33
33
32
17
18
19
16
16
191
172
185
187
190
72
71
69
67
64
